interdiction/MCDM/NO_CORR/GEN_FROM_60/20_ITEMS_1000_GEN/K5020W15.KNP.mps
NAME          BLANK   
ROWS
 N  OBJROW
 L  R0000000
COLUMNS
    C0000000  OBJROW     -833.         R0000000  607.        
    C0000001  OBJROW     -481.         R0000000  895.        
    C0000002  OBJROW     -328.         R0000000  636.        
    C0000003  OBJROW     -932.         R0000000  260.        
    C0000004  OBJROW     -460.         R0000000  324.        
    C0000005  OBJROW     -87.          R0000000  877.        
    C0000006  OBJROW     -149.         R0000000  723.        
    C0000007  OBJROW     -541.         R0000000  145.        
    C0000008  OBJROW     -294.         R0000000  785.        
    C0000009  OBJROW     -212.         R0000000  706.        
    C0000010  OBJROW     -367.         R0000000  423.        
    C0000011  OBJROW     -546.         R0000000  836.        
    C0000012  OBJROW     -505.         R0000000  6.          
    C0000013  OBJROW     -546.         R0000000  573.        
    C0000014  OBJROW     -549.         R0000000  233.        
    C0000015  OBJROW     -6.           R0000000  19.         
    C0000016  OBJROW     -580.         R0000000  161.        
    C0000017  OBJROW     -322.         R0000000  927.        
    C0000018  OBJROW     -562.         R0000000  775.        
    C0000019  OBJROW     -191.         R0000000  380.        
RHS
    RHS       R0000000  13564.      
BOUNDS
 BV BOUND     C0000000  1.          
 BV BOUND     C0000001  1.          
 BV BOUND     C0000002  1.          
 BV BOUND     C0000003  1.          
 BV BOUND     C0000004  1.          
 BV BOUND     C0000005  1.          
 BV BOUND     C0000006  1.          
 BV BOUND     C0000007  1.          
 BV BOUND     C0000008  1.          
 BV BOUND     C0000009  1.          
 BV BOUND     C0000010  1.          
 BV BOUND     C0000011  1.          
 BV BOUND     C0000012  1.          
 BV BOUND     C0000013  1.          
 BV BOUND     C0000014  1.          
 BV BOUND     C0000015  1.          
 BV BOUND     C0000016  1.          
 BV BOUND     C0000017  1.          
 BV BOUND     C0000018  1.          
 BV BOUND     C0000019  1.          
ENDATA
