data/MCDM/NO_CORR/GEN_FROM_60/20_ITEMS_1000_GEN/K5020W15.KNP.txt
N 20
M 21
LC 20
LC 21
LC 22
LC 23
LC 24
LC 25
LC 26
LC 27
LC 28
LC 29
LC 30
LC 31
LC 32
LC 33
LC 34
LC 35
LC 36
LC 37
LC 38
LC 39
LR 1
LR 2
LR 3
LR 4
LR 5
LR 6
LR 7
LR 8
LR 9
LR 10
LR 11
LR 12
LR 13
LR 14
LR 15
LR 16
LR 17
LR 18
LR 19
LR 20
LR 21
LO -833
LO -481
LO -328
LO -932
LO -460
LO -87
LO -149
LO -541
LO -294
LO -212
LO -367
LO -546
LO -505
LO -546
LO -549
LO -6
LO -580
LO -322
LO -562
LO -191
OS 1
IC 235
IC 365
IC 620
IC 101
IC 174
IC 565
IC 927
IC 367
IC 459
IC 497
IC 129
IC 523
IC 119
IC 369
IC 13
IC 111
IC 653
IC 427
IC 507
IC 568
IB 3865
